unsat
(define-fun inv ((s (_ BitVec 4)) (t (_ BitVec 4))) (_ BitVec 4) (bvnot (bvshl #b0100 s)))
3.25user 0.02system 0:03.27elapsed 99%CPU (0avgtext+0avgdata 50344maxresident)k
0inputs+8outputs (0major+7152minor)pagefaults 0swaps
